projected/problems_b25_r0_d7_m100_s666/_DIMACS/b25_d7_r0_s666_041.cnf
p cnf 169 232 24
c p show 1 2 3 4 5 6 7 8 9 10 11 12 13 14 15 16 17 18 19 20 21 22 23 24
-102 12 0
-102 -1 0
-103 9 0
-103 13 0
-104 103 102 0
-105 -5 0
-105 16 0
-106 12 0
-107 106 105 0
-108 107 0
-108 104 0
-109 -13 0
-109 -7 0
-110 -12 0
-110 4 0
-111 110 0
-111 109 0
-112 5 -13 0
-113 -7 -16 0
-114 113 0
-114 112 0
-115 114 0
-115 111 0
-116 115 108 0
-117 24 -22 0
-118 -3 0
-118 -24 0
-119 118 117 0
-120 17 0
-120 -24 0
-121 -4 -7 0
-122 121 0
-122 120 0
-123 122 0
-123 119 0
-124 17 0
-124 20 0
-125 4 0
-125 13 0
-126 125 0
-126 124 0
-127 -4 -13 0
-128 -17 -20 0
-129 128 0
-129 127 0
-130 129 126 0
-131 -3 -9 0
-132 9 3 0
-133 132 0
-133 131 0
-134 -24 10 0
-135 134 133 0
-136 135 130 0
-137 136 0
-137 123 0
-138 137 0
-138 116 0
-139 -7 0
-139 -20 0
-140 16 0
-140 -12 0
-141 140 0
-141 139 0
-142 14 0
-142 3 0
-143 -12 -4 0
-144 143 142 0
-145 144 0
-145 141 0
-146 21 0
-146 22 0
-147 7 -16 0
-148 147 146 0
-149 11 -20 0
-150 -15 24 0
-151 150 149 0
-153 151 148 0
-154 153 0
-154 145 0
-155 -9 20 0
-156 11 6 0
-157 156 0
-157 155 0
-159 13 23 0
-160 -23 -13 0
-161 160 0
-161 159 0
-162 161 134 0
-163 162 0
-163 157 0
-164 2 24 0
-165 21 11 0
-166 165 0
-166 164 0
-167 -15 4 0
-168 -4 15 0
-169 168 0
-169 167 0
-25 12 0
-25 20 0
-26 25 169 0
-27 26 0
-27 166 0
-152 27 163 0
-158 152 0
-158 154 0
-28 158 0
-28 138 0
-29 15 0
-29 -10 0
-30 -15 0
-88 30 29 0
-31 -8 -23 0
-32 -19 2 0
-33 32 0
-33 31 0
-34 33 88 0
-35 -10 10 0
-36 35 0
-37 -2 -11 0
-38 37 36 0
-39 13 0
-39 -17 0
-40 23 -13 0
-41 40 0
-41 39 0
-42 41 0
-42 38 0
-43 42 34 0
-44 20 0
-45 23 -12 0
-46 45 0
-46 44 0
-47 12 0
-47 10 0
-48 -9 -18 0
-49 48 47 0
-50 49 46 0
-51 -12 -10 0
-52 9 0
-52 18 0
-53 52 0
-53 51 0
-54 -20 0
-55 -23 0
-55 12 0
-56 55 54 0
-57 56 53 0
-58 57 0
-58 50 0
-59 -12 0
-59 -20 0
-60 59 0
-60 128 0
-61 10 0
-61 -17 0
-62 6 0
-62 7 0
-63 -7 0
-63 -6 0
-64 63 62 0
-65 64 0
-65 61 0
-66 65 0
-66 60 0
-67 66 0
-67 58 0
-68 67 43 0
-69 -13 5 0
-70 11 -7 0
-71 70 0
-71 69 0
-72 22 0
-72 11 0
-73 -9 -10 0
-74 73 0
-74 72 0
-75 74 0
-75 71 0
-76 -9 9 0
-77 9 0
-77 -9 0
-78 77 76 0
-79 -9 2 0
-80 -5 0
-80 -17 0
-81 80 79 0
-82 81 0
-82 78 0
-83 82 0
-83 75 0
-84 18 0
-84 -1 0
-85 2 20 0
-86 85 84 0
-87 -13 21 0
-89 22 0
-89 -23 0
-90 89 0
-90 87 0
-91 90 0
-91 86 0
-92 -12 12 0
-93 -3 0
-93 -16 0
-94 93 0
-94 92 0
-95 -10 0
-95 -3 0
-96 -13 19 0
-97 96 95 0
-98 97 94 0
-99 98 0
-99 91 0
-100 99 0
-100 83 0
-101 100 0
-101 68 0
101 28 0
-127 -125 0
-125 -127 0
-124 -128 0
-128 -124 0
-47 -51 0
-51 -47 0
-52 -48 0
-53 -49 0
-54 -44 0
-45 -55 0
-55 -45 0
-56 -46 0
-46 -56 0
