projected/problems_b25_r0_d7_m100_s666/b25_d7_r0_s666_041.smt2
(set-logic QF_UF)
(declare-fun A0 () Bool)
(declare-fun A1 () Bool)
(declare-fun A2 () Bool)
(declare-fun A3 () Bool)
(declare-fun A4 () Bool)
(declare-fun A5 () Bool)
(declare-fun A6 () Bool)
(declare-fun A7 () Bool)
(declare-fun A8 () Bool)
(declare-fun A9 () Bool)
(declare-fun A10 () Bool)
(declare-fun A11 () Bool)
(declare-fun A12 () Bool)
(declare-fun A13 () Bool)
(declare-fun A14 () Bool)
(declare-fun A15 () Bool)
(declare-fun A17 () Bool)
(declare-fun A18 () Bool)
(declare-fun A19 () Bool)
(declare-fun A20 () Bool)
(declare-fun A21 () Bool)
(declare-fun A22 () Bool)
(declare-fun A23 () Bool)
(declare-fun A24 () Bool)
(assert (let ((.def_0 (not A11))) (let ((.def_1 (or .def_0 A0))) (let ((.def_2 (and A8 A12))) (let ((.def_3 (not .def_2))) (let ((.def_4 (and .def_3 .def_1))) (let ((.def_5 (not A15))) (let ((.def_6 (or A4 .def_5))) (let ((.def_7 (not .def_6))) (let ((.def_8 (or A11 A11))) (let ((.def_9 (or .def_8 .def_7))) (let ((.def_10 (not .def_9))) (let ((.def_11 (or .def_10 .def_4))) (let ((.def_12 (not .def_11))) (let ((.def_13 (not A6))) (let ((.def_14 (not A12))) (let ((.def_15 (and .def_14 .def_13))) (let ((.def_16 (and .def_0 A3))) (let ((.def_17 (and .def_16 .def_15))) (let ((.def_18 (not A4))) (let ((.def_19 (and .def_18 A12))) (let ((.def_20 (not .def_19))) (let ((.def_21 (or .def_13 .def_5))) (let ((.def_22 (and .def_21 .def_20))) (let ((.def_23 (and .def_22 .def_17))) (let ((.def_24 (or .def_23 .def_12))) (let ((.def_25 (not A24))) (let ((.def_26 (and .def_25 A22))) (let ((.def_27 (not .def_26))) (let ((.def_28 (or A2 A24))) (let ((.def_29 (not .def_28))) (let ((.def_30 (or .def_29 .def_27))) (let ((.def_31 (not .def_30))) (let ((.def_32 (not A17))) (let ((.def_33 (or .def_32 A24))) (let ((.def_34 (and A3 A6))) (let ((.def_35 (or .def_34 .def_33))) (let ((.def_36 (or .def_35 .def_31))) (let ((.def_37 (not A3))) (let ((.def_38 (or .def_37 .def_14))) (let ((.def_39 (not .def_38))) (let ((.def_40 (and A17 A20))) (let ((.def_41 (not .def_40))) (let ((.def_42 (= .def_41 .def_39))) (let ((.def_43 (not .def_42))) (let ((.def_44 (not A8))) (let ((.def_45 (= .def_44 A2))) (let ((.def_46 (not A9))) (let ((.def_47 (and A24 .def_46))) (let ((.def_48 (not .def_47))) (let ((.def_49 (or .def_48 .def_45))) (let ((.def_50 (or .def_49 .def_43))) (let ((.def_51 (not .def_50))) (let ((.def_52 (or .def_51 .def_36))) (let ((.def_53 (not .def_52))) (let ((.def_54 (and .def_53 .def_24))) (let ((.def_55 (not A20))) (let ((.def_56 (and .def_13 .def_55))) (let ((.def_57 (not .def_56))) (let ((.def_58 (or .def_5 A11))) (let ((.def_59 (or .def_58 .def_57))) (let ((.def_60 (not .def_59))) (let ((.def_61 (and A13 A2))) (let ((.def_62 (not .def_61))) (let ((.def_63 (or .def_0 .def_37))) (let ((.def_64 (not .def_63))) (let ((.def_65 (and .def_64 .def_62))) (let ((.def_66 (not .def_65))) (let ((.def_67 (and .def_66 .def_60))) (let ((.def_68 (not .def_67))) (let ((.def_69 (not A22))) (let ((.def_70 (not A21))) (let ((.def_71 (or .def_70 .def_69))) (let ((.def_72 (or A6 .def_5))) (let ((.def_73 (not .def_72))) (let ((.def_74 (and .def_73 .def_71))) (let ((.def_75 (or A10 .def_55))) (let ((.def_76 (not A14))) (let ((.def_77 (or .def_76 A24))) (let ((.def_78 (or .def_77 .def_75))) (let ((.def_79 (not .def_78))) (let ((.def_80 (and .def_79 .def_74))) (let ((.def_81 (or .def_80 .def_68))) (let ((.def_82 (not .def_81))) (let ((.def_83 (or .def_44 A20))) (let ((.def_84 (not .def_83))) (let ((.def_85 (or A10 A5))) (let ((.def_86 (not .def_85))) (let ((.def_87 (or .def_86 .def_84))) (let ((.def_88 (or .def_25 A9))) (let ((.def_89 (not .def_88))) (let ((.def_90 (= A23 .def_14))) (let ((.def_91 (not .def_90))) (let ((.def_92 (and .def_91 .def_89))) (let ((.def_93 (or .def_92 .def_87))) (let ((.def_94 (not .def_93))) (let ((.def_95 (not A1))) (let ((.def_96 (and .def_95 .def_25))) (let ((.def_97 (not .def_96))) (let ((.def_98 (not A10))) (let ((.def_99 (and .def_70 .def_98))) (let ((.def_100 (not .def_99))) (let ((.def_101 (and .def_100 .def_97))) (let ((.def_102 (= A3 A14))) (let ((.def_103 (not .def_102))) (let ((.def_104 (and A11 A20))) (let ((.def_105 (not .def_104))) (let ((.def_106 (and .def_105 .def_103))) (let ((.def_107 (not .def_106))) (let ((.def_108 (and .def_107 .def_101))) (let ((.def_109 (or .def_108 .def_94))) (let ((.def_110 (and .def_109 .def_82))) (let ((.def_111 (and .def_110 .def_54))) (let ((.def_112 (not .def_111))) (let ((.def_113 (or .def_76 A9))) (let ((.def_114 (and .def_76 .def_76))) (let ((.def_115 (not .def_114))) (let ((.def_116 (and .def_115 .def_113))) (let ((.def_117 (and A7 A23))) (let ((.def_118 (not .def_117))) (let ((.def_119 (not A19))) (let ((.def_120 (or .def_119 A1))) (let ((.def_121 (and .def_120 .def_118))) (let ((.def_122 (not .def_121))) (let ((.def_123 (and .def_122 .def_116))) (let ((.def_124 (= A9 A9))) (let ((.def_125 (not .def_124))) (let ((.def_126 (and A1 A10))) (let ((.def_127 (and .def_126 .def_125))) (let ((.def_128 (or .def_14 A17))) (let ((.def_129 (or A23 .def_14))) (let ((.def_130 (not .def_129))) (let ((.def_131 (or .def_130 .def_128))) (let ((.def_132 (or .def_131 .def_127))) (let ((.def_133 (and .def_132 .def_123))) (let ((.def_134 (and A11 A9))) (let ((.def_135 (not .def_134))) (let ((.def_136 (and A8 A18))) (let ((.def_137 (and .def_136 .def_135))) (let ((.def_138 (and .def_55 .def_55))) (let ((.def_139 (or A23 .def_0))) (let ((.def_140 (not .def_139))) (let ((.def_141 (or .def_140 .def_138))) (let ((.def_142 (not .def_141))) (let ((.def_143 (= .def_142 .def_137))) (let ((.def_144 (or A11 A20))) (let ((.def_145 (not .def_144))) (let ((.def_146 (and .def_145 .def_41))) (let ((.def_147 (and A9 .def_32))) (let ((.def_148 (= .def_13 A5))) (let ((.def_149 (not .def_148))) (let ((.def_150 (and .def_149 .def_147))) (let ((.def_151 (and .def_150 .def_146))) (let ((.def_152 (and .def_151 .def_143))) (let ((.def_153 (not .def_152))) (let ((.def_154 (and .def_153 .def_133))) (let ((.def_155 (and A12 .def_18))) (let ((.def_156 (or A10 .def_13))) (let ((.def_157 (not .def_156))) (let ((.def_158 (or .def_157 .def_155))) (let ((.def_159 (not .def_158))) (let ((.def_160 (or .def_69 .def_98))) (let ((.def_161 (or .def_44 .def_46))) (let ((.def_162 (not .def_161))) (let ((.def_163 (or .def_162 .def_160))) (let ((.def_164 (not .def_163))) (let ((.def_165 (and .def_164 .def_159))) (let ((.def_166 (not .def_165))) (let ((.def_167 (or .def_44 A8))) (let ((.def_168 (and A8 .def_44))) (let ((.def_169 (or .def_168 .def_167))) (let ((.def_170 (or .def_44 A1))) (let ((.def_171 (and .def_18 .def_32))) (let ((.def_172 (or .def_171 .def_170))) (let ((.def_173 (and .def_172 .def_169))) (let ((.def_174 (not .def_173))) (let ((.def_175 (or .def_174 .def_166))) (let ((.def_176 (not .def_175))) (let ((.def_177 (not A0))) (let ((.def_178 (and A18 .def_177))) (let ((.def_179 (not .def_178))) (let ((.def_180 (and .def_95 .def_55))) (let ((.def_181 (and .def_180 .def_179))) (let ((.def_182 (and A12 .def_70))) (let ((.def_183 (not .def_182))) (let ((.def_184 (or .def_69 A23))) (let ((.def_185 (not .def_184))) (let ((.def_186 (and .def_185 .def_183))) (let ((.def_187 (not .def_186))) (let ((.def_188 (or .def_187 .def_181))) (let ((.def_189 (not .def_188))) (let ((.def_190 (or .def_0 A11))) (let ((.def_191 (not A2))) (let ((.def_192 (and .def_191 .def_5))) (let ((.def_193 (and .def_192 .def_190))) (let ((.def_194 (and .def_46 .def_191))) (let ((.def_195 (or .def_14 A19))) (let ((.def_196 (or .def_195 .def_194))) (let ((.def_197 (or .def_196 .def_193))) (let ((.def_198 (and .def_197 .def_189))) (let ((.def_199 (and .def_198 .def_176))) (let ((.def_200 (not .def_199))) (let ((.def_201 (or .def_200 .def_154))) (let ((.def_202 (and .def_201 .def_112))) (let ((.def_203 (not .def_202))) .def_203)))))))))))))))))))))))))))))))))))))))))))))))))))))))))))))))))))))))))))))))))))))))))))))))))))))))))))))))))))))))))))))))))))))))))))))))))))))))))))))))))))))))))))))))))))))))))))))))))))))))))))))
(check-sat)
